Route #1: 77 46 12 56 144 145 17 63 37 108 90 5 103
Route #2: 139 47 4 149 109 143 135 141 150 148 87 142 147
Route #3: 92 93 42 64 19 94 88 40 136 41 66 111 146
Route #4: 52 15 124 106 73 125 33 72 91 45 65 107 44 137
Route #5: 38 76 49 10 54 39 89 117 122 123 71
Route #6: 62 9 104 30 105 75 34 74 79 21 50 130 118 16
Route #7: 126 100 51 32 119 1 22 80 120 81 138 57 132 6
Route #8: 98 24 96 97 86 43 99 114 61 7 69 23
Route #9: 68 14 58 25 95 67 13 134 55 18 110 133
Route #10: 70 116 28 31 82 140 113 26 8 60 112 48 27
Route #11: 102 3 121 115 36 85 59 20 131 83 2
Route #12: 78 127 53 129 29 128 84 35 101 11
Cost 1164
